100	100834

396 2389
318 2164
801 3201
920 3366
123 1381
390 2373
275 2024
240 1899
273 2017
980 3440
936 3386
18 535
632 2917
756 3132
381 2348
127 1402
5 282
933 3383
814 3220
496 2636
373 2326
419 2449
944 3396
767 3149
78 1106
768 3150
804 3205
367 2309
495 2634
487 2615
892 3330
698 3036
448 2522
252 1943
681 3006
800 3200
713 3061
282 2047
140 1470
755 3130
539 2731
367 2309
7 334
840 3258
768 3150
44 834
136 1449
188 1693
724 3080
635 2923
18 535
58 956
619 2893
887 3323
74 1078
560 2775
737 3101
516 2681
531 2714
538 2729
448 2522
657 2964
969 3427
160 1567
557 2769
274 2020
491 2625
686 3015
966 3423
966 3423
455 2540
107 1290
358 2283
498 2641
688 3019
213 1796
285 2057
996 3459
459 2549
13 455
924 3371
731 3091
497 2638
74 1078
277 2031
491 2625
356 2277
351 2263
893 3331
574 2804
315 2154
79 1113
914 3358
401 2402
610 2876
528 2707
329 2197
986 3447
777 3164
301 2110
